CMD:
./solvers/bin/cadical --plain --no-reduce -t 1600 ./data/cnfs//neclabakery001/neclabakery001.77.cnf

c --- [ banner ] -------------------------------------------------------------
c 
c CaDiCaL SAT Solver
c Copyright (c) 2016-2024
c A. Biere, M. Fleury, N. Froleyks, K. Fazekas, F. Pollitt, T. Faller
c JKU Linz, University of Freiburg, TU Wien
c 
c Version 2.1.3 5296d3d2a9bf48c154ab2acb5e44625776d821bf
c g++ (Gentoo 12.3.1_p20230526 p2) 12.3.1 20230526 -Wall -Wextra -O3 -DNDEBUG
c Sat Aug 9 07:26:21 PDT 2025 Linux cedar2.int.cedar.computecanada.ca 5.14.0-362.24.2.el9_3.x86_64 x86_64
c 
c --- [ limit ] --------------------------------------------------------------
c 
c setting time limit to 1600 seconds real time (due to '-t 1600')
c 
c --- [ parsing input ] ------------------------------------------------------
c 
c reading DIMACS file from './data/cnfs//neclabakery001/neclabakery001.77.cnf'
c opening file to read './data/cnfs//neclabakery001/neclabakery001.77.cnf'
c found 'p cnf 55698 159204' header
c parsed 159204 clauses in 0.02 seconds process time
c 
c --- [ options ] ------------------------------------------------------------
c 
c   --compact=false                (different from default 'true')
c   --decompose=false              (different from default 'true')
c   --deduplicate=false            (different from default 'true')
c   --elim=false                   (different from default 'true')
c   --probe=false                  (different from default 'true')
c   --reduce=false                 (different from default 'true')
c   --subsume=false                (different from default 'true')
c   --ternary=false                (different from default 'true')
c   --transred=false               (different from default 'true')
c   --vivify=false                 (different from default 'true')
c 
c --- [ solving ] ------------------------------------------------------------
c 
c time measured in process time since initialization
c 
c  seconds  reductions  redundant  irredundant
c         MB    restarts       trail       variables
c          level   conflicts       glue         remaining
c 
c *  0.03 28  0 0   0    0    0  0% 0 154487 52293 94%
c {  0.05 29  0 0   0    0    0  0% 0 154487 52293 94%
c i  0.05 29 63 0   0    4    1  8% 0 154487 51586 93%
c i  0.10 30 558 0  16  768  349 49% 2 154487 51464 92%
c i  0.10 30 549 0  18  774  353 49% 2 154487 51463 92%
c i  0.11 30 459 0  39  860  428 46% 2 154487 51442 92%
c i  0.11 30 441 0  44  882  444 45% 2 154487 51396 92%
c i  0.11 30 435 0  46  888  449 45% 2 154487 51395 92%
c i  0.11 30 434 0  46  890  449 45% 2 154487 51392 92%
c i  0.12 30 394 0  55  955  497 43% 3 154487 51389 92%
c i  0.12 30 392 0  56  958  499 43% 3 154487 51345 92%
c i  0.12 30 388 0  57  971  502 43% 2 154487 51279 92%
c i  0.12 30 387 0  57  972  502 43% 2 154487 51278 92%
c i  0.12 30 385 0  57  975  504 43% 2 154487 51275 92%
c i  0.12 30 384 0  57  976  504 43% 2 154487 51242 92%
c i  0.12 30 379 0  57  983  509 42% 2 154487 51186 92%
c i  0.12 30 379 0  57  984  509 42% 2 154487 51184 92%
c i  0.12 30 377 0  57  986  509 42% 2 154487 51147 92%
c i  0.12 30 377 0  57  987  509 42% 2 154487 51146 92%
c i  0.12 30 376 0  57  988  509 42% 2 154487 51141 92%
c 
c  seconds   reductions  redundant  irredundant
c         MB     restarts       trail       variables
c           level   conflicts       glue         remaining
c 
c i  0.12 30 375 0  57  989  509 42% 2 154487 51140 92%
c i  0.12 30 375 0  57  990  509 42% 2 154487 51134 92%
c i  0.12 30 373 0  57  992  510 42% 2 154487 51110 92%
c i  0.12 30 372 0  57  994  511 42% 2 154487 51109 92%
c i  0.12 30 371 0  57  995  511 42% 2 154487 51105 92%
c i  0.12 30 371 0  57  996  511 42% 2 154487 51103 92%
c i  0.12 30 370 0  57  997  511 42% 2 154487 51087 92%
c i  0.12 30 369 0  57  998  511 42% 2 154487 51084 92%
c i  0.12 30 369 0  57  999  511 42% 2 154487 51079 92%
c i  0.12 30 368 0  57 1000  511 42% 2 154487 51078 92%
c }  0.12 30 368 0  57 1000  511 42% 2 154487 51078 92%
c [  0.12 30  0 0  57 1000  511  0% 0 154487 51078 92%
c O  0.13 30 1106 0  57 1002  513 55% 3 154487 51078 92%
c i  0.16 30 1572 0  57 1537  994 79% 8 154487 51077 92%
c i  0.17 30 1561 0  57 1593 1045 78% 8 154487 51076 92%
c i  0.20 30 1454 0  58 2099 1493 74% 8 154487 51075 92%
c i  0.22 30 1269 0  58 2265 1644 67% 7 154487 51074 92%
c i  0.23 30 1159 0  58 2397 1744 63% 8 154487 51073 92%
c ]  0.26 30 820 0  58 3000 2268 50% 8 154487 51073 92%
c {  0.26 30 368 0  58 3000 2268 42% 2 154487 51073 92%
c 
c  seconds   reductions  redundant  irredundant
c         MB     restarts       trail       variables
c           level   conflicts       glue         remaining
c 
c F  0.27 30 367 0  58 3003 2271 42% 2 154487 51073 92%
c i  0.27 30 347 0  60 3039 2303 41% 3 154487 51071 92%
c i  0.28 30 347 0  61 3040 2303 41% 3 154487 51070 92%
c i  0.28 30 337 0  66 3060 2322 41% 3 154487 51069 92%
... skipped 191 lines ...
c 
c  seconds   reductions     redundant   irredundant
c         MB     restarts          trail        variables
c           level     conflicts        glue          remaining
c 
c i  4.70 37 294 0 2580 32227 27589 48% 14 141339 50092 90%
c i  4.76 38 286 0 2580 32550 27861 48% 13 141339 50091 90%
c i  4.89 38 269 0 2580 33295 28495 48% 13 141339 50090 90%
c i  4.97 38 259 0 2581 33798 28917 48% 13 141339 50087 90%
c B  5.35 39 226 0 2583 36015 30843 44% 14 141339 50087 90%
c i  5.44 39 219 0 2583 36590 31366 44% 14 141339 50086 90%
c i  5.52 39 212 0 2583 37135 31842 43% 13 141339 50085 90%
c i  5.68 39 201 0 2584 38113 32697 42% 13 141339 50084 90%
c i  5.76 39 197 0 2584 38563 33088 41% 13 141339 50083 90%
c i  5.80 39 194 0 2584 38776 33264 41% 13 141339 50082 90%
c i  6.32 40 172 0 2586 41425 35591 39% 13 141339 50081 90%
c i  6.75 41 157 0 2587 43578 37389 37% 13 141339 50080 90%
c i  6.85 41 155 0 2587 43882 37593 37% 13 141339 50079 90%
c i  6.90 41 153 0 2587 44206 37877 37% 13 141339 50078 90%
c i  6.92 41 152 0 2587 44422 38073 37% 13 141339 50077 90%
c i  6.92 41 151 0 2587 44445 38091 37% 13 141339 50076 90%
c i  6.96 41 149 0 2587 44743 38331 36% 13 141339 50068 90%
c W  7.08 53 148 0 2587 45017 38068 36% 13 140295 50067 90%
c i  7.09 53 147 0 2587 45084 38104 36% 13 140295 50066 90%
c i  7.10 53 147 0 2587 45097 38115 36% 13 140295 50065 90%
c 
c  seconds   reductions     redundant   irredundant
c         MB     restarts          trail        variables
c           level     conflicts        glue          remaining
c 
c i  7.10 53 147 0 2587 45119 38125 36% 13 140295 50064 90%
c i  7.10 53 147 0 2587 45139 38138 36% 13 140295 50063 90%
c i  7.15 53 146 0 2587 45399 38378 36% 13 140295 50062 90%
c i  7.59 53 135 0 2588 47860 40400 35% 13 140295 50061 90%
c i  8.11 53 125 0 2588 50175 42344 34% 13 140295 50055 90%
c i  8.12 53 125 0 2588 50186 42352 34% 13 140295 50054 90%
c i  8.31 53 121 0 2588 51061 43105 35% 13 140295 50053 90%
c i  8.37 53 121 0 2588 51248 43262 35% 13 140295 50052 90%
c i  8.39 53 120 0 2588 51310 43299 35% 13 140295 49977 90%
c i  8.39 53 120 0 2588 51315 43303 35% 13 140295 49975 90%
c i  8.49 53 119 0 2588 51820 43712 35% 13 140295 49969 90%
c i  8.51 53 118 0 2588 51966 43832 34% 13 140295 49967 90%
c i  8.51 53 118 0 2588 51972 43836 34% 13 140295 49956 90%
c i  9.06 53 110 0 2588 54196 45384 34% 12 140295 48158 86%
c ]  9.06 53 110 0 2588 54206 45388 34% 12 140295 46211 83%
c 0  9.06 53 110 0 2588 54206 45388 34% 12 140295 46211 83%
c 
c --- [ result ] -------------------------------------------------------------
c 
s UNSATISFIABLE
c 
c --- [ run-time profiling ] -------------------------------------------------
c 
c process time taken by individual solving procedures
c (percentage relative to process time for solving)
c 
c         9.04  100.00% search
c         5.31   58.75% stable
c         3.56   39.41% unstable
c         0.15    1.61% walk
c         0.02    0.27% parse
c         0.02    0.22% lucky
c         0.00    0.00% simplify
c   =================================
c         9.04   99.72% solve
c 
c last line shows process time for solving
c (percentage relative to total process time)
c 
c --- [ statistics ] ---------------------------------------------------------
c 
c chronological:             17874        32.97 %  of conflicts
c conflicts:                 54206      5998.74    per second
c decisions:                182932     20244.28    per second
c fixed:                      9487        17.03 %  of all variables
c learned:                   51611        95.21 %  per conflict
c learned_lits:            3162478       100.00 %  learned literals
c minimized:                     0         0.00 %  learned literals
c shrunken:                 643223        20.34 %  learned literals
c minishrunken:             733297        23.19 %  learned literals
c otfs:                        510         0.94 %  of conflict
c propagations:           94274432        10.43 M  per second
c rephased:                      9      6022.89    interval
c restarts:                   2588        20.95    interval
c stabilizing:                   3        61.24 %  of conflicts
c subsumed:                   5298         2.57 %  of all clauses
c strengthened:                503         0.24 %  of all clauses
c walked:                        2     27103.00    interval
c 
c seconds are measured in process time for solving
c 
c --- [ resources ] ----------------------------------------------------------
c 
c total process time since initialization:         9.06    seconds
c total real time since initialization:            9.10    seconds
c maximum resident set size of process:           51.75    MB
c 
c --- [ shutting down ] ------------------------------------------------------
c 
c exit 20
